db/inputs/134241455523611153572688726441333011769.smt2
(set-logic QF_FP)
(declare-const x0 (_ FloatingPoint 11 53))
(declare-const x1 (_ FloatingPoint 11 53))
(declare-const x2 (_ FloatingPoint 11 53))
(declare-const x3 (_ FloatingPoint 11 53))
(declare-const x4 (_ FloatingPoint 11 53))
(declare-const x5 (_ FloatingPoint 11 53))
(declare-const x6 (_ FloatingPoint 11 53))
(declare-const x7 (_ FloatingPoint 11 53))
(declare-const x8 (_ FloatingPoint 11 53))
(declare-const x9 (_ FloatingPoint 11 53))
(declare-const x10 (_ FloatingPoint 11 53))
(declare-const x11 (_ FloatingPoint 11 53))
(declare-const x12 (_ FloatingPoint 11 53))
(declare-const x13 (_ FloatingPoint 11 53))
(declare-const x14 (_ FloatingPoint 11 53))
(declare-const x15 (_ FloatingPoint 11 53))
(declare-const x16 (_ FloatingPoint 11 53))
(declare-const x17 (_ FloatingPoint 11 53))
(assert (fp.geq (fp.sub RNE (fp.div RNE x12 x4) (fp.add RNE x17 x3)) (fp.sub RNE (fp.add RNE x15 x12) (fp.neg x4))))
(assert (fp.leq (fp.add RNE (fp.sub RNE x7 x8) (fp.div RNE x8 x3)) (fp.neg (fp.sub RNE x14 x2))))
(assert (fp.lt (fp.sub RNE (fp.mul RNE x7 x10) (fp.mul RNE x15 x8)) (fp.neg (fp.div RNE x10 x13))))
(assert (fp.leq (fp.neg (fp.div RNE x3 x13)) (fp.sub RNE (fp.add RNE x1 x14) (fp.div RNE x14 x9))))
(assert (fp.eq (fp.neg (fp.sub RNE x10 x5)) (fp.neg (fp.sub RNE x9 x0))))
(assert (fp.geq (fp.mul RNE (fp.sub RNE x0 x15) (fp.sub RNE x16 x0)) (fp.neg (fp.mul RNE x3 x12))))
(assert (fp.gt (fp.add RNE (fp.div RNE x15 x13) (fp.div RNE x9 x10)) (fp.neg (fp.div RNE x16 x3))))
(assert (fp.leq (fp.sub RNE (fp.neg x12) (fp.div RNE x0 x12)) (fp.neg (fp.sub RNE x11 x9))))
(assert (fp.lt (fp.div RNE (fp.sub RNE x2 x12) (fp.add RNE x11 x2)) (fp.sub RNE (fp.add RNE x2 x4) (fp.mul RNE x7 x12))))
(assert (fp.eq (fp.neg (fp.mul RNE x14 x6)) (fp.add RNE (fp.sub RNE x3 x8) (fp.sub RNE x1 x0))))
(assert (fp.eq (fp.sub RNE (fp.mul RNE x11 x0) (fp.add RNE x15 x1)) (fp.sub RNE (fp.neg x9) (fp.sub RNE x14 x17))))
(check-sat)
