db/data/134241455523611153572688726441333011769.z3.out
-------------------
2500.121514710
